33612.0,38.86,42.8
31711.75,41.19,45.36
35768.28,36.52,40.22
34545.71,37.81,41.64
27672.64,47.2,51.98
32047.53,40.76,44.89
34658.02,37.69,41.5
35526.15,36.77,40.49
30612.05,42.67,46.99
33181.47,39.37,43.35
36416.89,35.87,39.5
33177.71,39.37,43.36
34974.2,37.35,41.13
37001.06,35.3,38.88
37276.94,35.04,38.59
33640.36,38.83,42.76
32035.21,40.77,44.9
30617.35,42.66,46.98
30187.37,43.27,47.65
31745.33,41.15,45.31
